RT is False
Default write of storage_offers_DA.csv just to have a file (but constraint should be inactive)
Reading model...
...model read.
creating competitive generators file...
...competitive generators recorded.
Loading data...
.. day-ahead data with real-time VRE data read.
Compiling instance...
...instance created.
Creating Offer Mitigation (model will solve as dispatch if TRUE)...
Solving...

Welcome to IBM(R) ILOG(R) CPLEX(R) Interactive Optimizer 12.9.0.0
  with Simplex, Mixed Integer & Barrier Optimizers
5725-A06 5725-A29 5724-Y48 5724-Y49 5724-Y54 5724-Y55 5655-Y21
Copyright IBM Corp. 1988, 2019.  All Rights Reserved.

Type 'help' for a list of available commands.
Type 'help' followed by a command name for more
information on commands.

CPLEX> Logfile 'cplex.log' closed.
Logfile 'C:\Users\Luke\Desktop\test919\logs\tmpgi18n2mw.cplex.log' open.
CPLEX> New value for parallel optimization mode: -1
CPLEX> New value for mixed integer optimality gap tolerance: 0.01
CPLEX> New value for integrality tolerance: 1e-09
CPLEX> New value for feasibility tolerance: 0.01
CPLEX> New value for deterministic time limit in ticks: 75000
CPLEX> Problem 'C:\Users\Luke\Desktop\test919\logs\tmp7k0og7by.pyomo.lp' read.
Read time = 0.05 sec. (3.04 ticks)
CPLEX> Problem name         : C:\Users\Luke\Desktop\test919\logs\tmp7k0og7by.pyomo.lp
Objective sense      : Minimize
Variables            :   26081  [Nneg: 1,  Box: 21616,  Free: 4464]
Objective nonzeros   :    2496
Linear constraints   :   27515  [Less: 14006,  Greater: 4416,  Equal: 9093]
  Nonzeros           :   89219
  RHS nonzeros       :   12271

Variables            : Min LB: -5000.000        Max UB: 1000000.       
Objective nonzeros   : Min   : 15.73158         Max   : 124.0997       
Linear constraints   :
  Nonzeros           : Min   : 0.8500000        Max   : 3000.000       
  RHS nonzeros       : Min   : 0.008333333      Max   : 5000.000       
CPLEX> CPXPARAM_Parallel                                -1
CPXPARAM_Simplex_Tolerances_Feasibility          0.01
CPXPARAM_DetTimeLimit                            75000
CPXPARAM_MIP_Tolerances_MIPGap                   0.01
CPXPARAM_MIP_Tolerances_Integrality              1.0000000000000001e-09
Parallel mode: opportunistic, using up to 12 threads for concurrent optimization.
Tried aggregator 1 time.
LP Presolve eliminated 21377 rows and 15487 columns.
Aggregator did 747 substitutions.
Reduced LP has 5391 rows, 9847 columns, and 31786 nonzeros.
Presolve time = 0.05 sec. (30.20 ticks)
Symmetry aggregator did 5563 additional substitutions.
Initializing dual steep norms . . .

Iteration log . . .
Iteration:     1   Dual objective     =             0.000000
Perturbation started.
Iteration:   101   Dual objective     =             0.000000
Iteration:   284   Dual objective     =            46.983004
Iteration:   428   Dual objective     =            71.327455
Iteration:   642   Dual objective     =            74.135798
Iteration:   912   Dual objective     =            74.159734
Iteration:  1097   Dual objective     =            74.184929
Iteration:  1320   Dual objective     =         74115.700344
Removing perturbation.

Dual crossover.
  Dual:  Fixing 7 variables.
        6 DMoves:  Infeasibility  1.42108547e-13  Objective  8.76294975e+04
        0 DMoves:  Infeasibility  6.21724894e-14  Objective  8.76294975e+04
  Dual:  Pushed 0, exchanged 7.
  Primal:  Fixed no variables.

Dual simplex solved model.


Dual simplex - Optimal:  Objective =  8.7629497499e+04
Solution time =    0.13 sec.  Iterations = 1557 (0)
Deterministic time = 85.95 ticks  (687.60 ticks/sec)

CPLEX> Solution written to file 'C:\Users\Luke\Desktop\test919\logs\tmp4qsr8e40.cplex.sol'.
CPLEX> Exporting results... 
...storage offer mitigation file created
Converting model to MPEC...
...converted
NOTE: initial MIP solve with only storage competitive to get feasible solution
Solving...

Welcome to IBM(R) ILOG(R) CPLEX(R) Interactive Optimizer 12.9.0.0
  with Simplex, Mixed Integer & Barrier Optimizers
5725-A06 5725-A29 5724-Y48 5724-Y49 5724-Y54 5724-Y55 5655-Y21
Copyright IBM Corp. 1988, 2019.  All Rights Reserved.

Type 'help' for a list of available commands.
Type 'help' followed by a command name for more
information on commands.

CPLEX> Logfile 'cplex.log' closed.
Logfile 'C:\Users\Luke\Desktop\test919\logs\tmp1ylcdj5w.cplex.log' open.
CPLEX> New value for parallel optimization mode: -1
CPLEX> New value for mixed integer optimality gap tolerance: 0.01
CPLEX> New value for integrality tolerance: 1e-09
CPLEX> New value for feasibility tolerance: 0.01
CPLEX> New value for deterministic time limit in ticks: 75000
CPLEX> Problem 'C:\Users\Luke\Desktop\test919\logs\tmpnf1dqzpq.pyomo.lp' read.
Read time = 0.20 sec. (14.78 ticks)
CPLEX> Problem name         : C:\Users\Luke\Desktop\test919\logs\tmpnf1dqzpq.pyomo.lp
Objective sense      : Maximize
Variables            :   53805  [Nneg: 1,  Box: 22000,  Free: 4464,
                                 Binary: 27340]
Objective nonzeros   :    9029
Linear constraints   :  123205  [Less: 41346,  Greater: 59096,  Equal: 22763]
  Nonzeros           :  291753
  RHS nonzeros       :   67425

Variables            : Min LB: -5000.000        Max UB: 1000000.       
Objective nonzeros   : Min   : 0.008333333      Max   : 2500.000       
Linear constraints   :
  Nonzeros           : Min   : 0.008333333      Max   : 1000000.       
  RHS nonzeros       : Min   : 0.008333333      Max   : 1000000.       
CPLEX> CPXPARAM_Parallel                                -1
CPXPARAM_Simplex_Tolerances_Feasibility          0.01
CPXPARAM_DetTimeLimit                            75000
CPXPARAM_MIP_Tolerances_MIPGap                   0.01
CPXPARAM_MIP_Tolerances_Integrality              1.0000000000000001e-09
Tried aggregator 3 times.
MIP Presolve eliminated 88632 rows and 18956 columns.
MIP Presolve added 3379 rows and 0 columns.
MIP Presolve modified 24845 coefficients.
Aggregator did 12983 substitutions.
Reduced MIP has 24969 rows, 21310 columns, and 71222 nonzeros.
Reduced MIP has 8422 binaries, 0 generals, 0 SOSs, and 0 indicators.
Presolve time = 0.25 sec. (173.44 ticks)
Probing fixed 391 vars, tightened 2856 bounds.
Probing time = 1.53 sec. (879.67 ticks)
Tried aggregator 2 times.
MIP Presolve eliminated 880 rows and 782 columns.
MIP Presolve modified 2213 coefficients.
Aggregator did 39 substitutions.
Reduced MIP has 24050 rows, 20489 columns, and 68563 nonzeros.
Reduced MIP has 8031 binaries, 0 generals, 0 SOSs, and 0 indicators.
Presolve time = 0.09 sec. (66.89 ticks)
Probing time = 0.03 sec. (15.75 ticks)
Clique table members: 6315.
MIP emphasis: balance optimality and feasibility.
MIP search method: dynamic search.
Parallel mode: opportunistic, using up to 12 threads.
Root relaxation solution time = 0.47 sec. (553.46 ticks)

        Nodes                                         Cuts/
   Node  Left     Objective  IInf  Best Integer    Best Bound    ItCnt     Gap

      0     0        0.0000   730                      0.0000     6438         
*     0     0      integral     0        0.0000        0.0000     6438    0.00%
Elapsed time = 4.63 sec. (2903.38 ticks, tree = 0.01 MB, solutions = 1)

Root node processing (before b&c):
  Real time             =    4.64 sec. (2905.32 ticks)
Parallel b&c, 12 threads:
  Real time             =    0.00 sec. (0.00 ticks)
  Sync time (average)   =    0.00 sec.
  Wait time (average)   =    0.00 sec.
                          ------------
Total (root+branch&cut) =    4.64 sec. (2905.32 ticks)

Solution pool: 1 solution saved.

MIP - Integer optimal solution:  Objective =  8.6583895609e-10
Solution time =    4.64 sec.  Iterations = 6438  Nodes = 0
Deterministic time = 2905.48 ticks  (626.05 ticks/sec)

CPLEX> Incumbent solution written to file 'C:\Users\Luke\Desktop\test919\logs\tmpcjby4rmp.cplex.sol'.
CPLEX> NOTE: no warmstart specified for MIP iteration, default behavior is true
NOTE: resolving with all competitive generators using storage-only solution to warmstart
Solving...

Welcome to IBM(R) ILOG(R) CPLEX(R) Interactive Optimizer 12.9.0.0
  with Simplex, Mixed Integer & Barrier Optimizers
5725-A06 5725-A29 5724-Y48 5724-Y49 5724-Y54 5724-Y55 5655-Y21
Copyright IBM Corp. 1988, 2019.  All Rights Reserved.

Type 'help' for a list of available commands.
Type 'help' followed by a command name for more
information on commands.

CPLEX> Logfile 'cplex.log' closed.
Logfile 'C:\Users\Luke\Desktop\test919\logs\tmpokz5v23n.cplex.log' open.
CPLEX> New value for parallel optimization mode: -1
CPLEX> New value for mixed integer optimality gap tolerance: 0.01
CPLEX> New value for integrality tolerance: 1e-09
CPLEX> New value for feasibility tolerance: 0.01
CPLEX> New value for deterministic time limit in ticks: 75000
CPLEX> Problem 'C:\Users\Luke\Desktop\test919\logs\tmpu7m2y628.pyomo.lp' read.
Read time = 0.19 sec. (14.81 ticks)
CPLEX> MIP start file 'C:\Users\Luke\Desktop\test919\logs\tmpbbt3uq2k.cplex.mst' read.
CPLEX> Problem name         : C:\Users\Luke\Desktop\test919\logs\tmpu7m2y628.pyomo.lp
Objective sense      : Maximize
Variables            :   54525  [Nneg: 1,  Box: 22720,  Free: 4464,
                                 Binary: 27340]
Objective nonzeros   :    9725
Linear constraints   :  123205  [Less: 41346,  Greater: 59096,  Equal: 22763]
  Nonzeros           :  291753
  RHS nonzeros       :   67425

Variables            : Min LB: -5000.000        Max UB: 1000000.       
Objective nonzeros   : Min   : 0.008333333      Max   : 2500.000       
Linear constraints   :
  Nonzeros           : Min   : 0.008333333      Max   : 1000000.       
  RHS nonzeros       : Min   : 0.008333333      Max   : 1000000.       
CPLEX> CPXPARAM_Parallel                                -1
CPXPARAM_Simplex_Tolerances_Feasibility          0.01
CPXPARAM_DetTimeLimit                            75000
CPXPARAM_MIP_Tolerances_MIPGap                   0.01
CPXPARAM_MIP_Tolerances_Integrality              1.0000000000000001e-09
Warning:  No solution found from 1 MIP starts.
Retaining values of one MIP start for possible repair.
Tried aggregator 3 times.
MIP Presolve eliminated 88632 rows and 19676 columns.
MIP Presolve added 3379 rows and 0 columns.
MIP Presolve modified 24845 coefficients.
Aggregator did 12983 substitutions.
Reduced MIP has 24969 rows, 21310 columns, and 71222 nonzeros.
Reduced MIP has 8422 binaries, 0 generals, 0 SOSs, and 0 indicators.
Presolve time = 0.23 sec. (173.80 ticks)
Probing fixed 391 vars, tightened 2856 bounds.
Probing time = 1.52 sec. (879.67 ticks)
Tried aggregator 2 times.
MIP Presolve eliminated 880 rows and 782 columns.
MIP Presolve modified 2213 coefficients.
Aggregator did 39 substitutions.
Reduced MIP has 24050 rows, 20489 columns, and 68563 nonzeros.
Reduced MIP has 8031 binaries, 0 generals, 0 SOSs, and 0 indicators.
Presolve time = 0.09 sec. (66.89 ticks)
Probing time = 0.05 sec. (15.75 ticks)
Clique table members: 6315.
MIP emphasis: balance optimality and feasibility.
MIP search method: dynamic search.
Parallel mode: opportunistic, using up to 12 threads.
Root relaxation solution time = 0.36 sec. (293.16 ticks)

        Nodes                                         Cuts/
   Node  Left     Objective  IInf  Best Integer    Best Bound    ItCnt     Gap

      0     0   169227.4042  1724                 169227.4042     6281         
      0     0   166526.5108   655                   Cuts: 694     6664         
      0     0   165850.4415   553                   Cuts: 259     6791         
      0     0   165685.9026   536                   Cuts: 157     6865         
      0     0   165638.2866   515                   Cuts: 110     6921         
      0     0   165638.2866   496                    Cuts: 88     6954         
      0     0   165626.4004   479                    Cuts: 74     6979         
      0     0   165626.4004   450                    Cuts: 63     7003         
      0     0   165626.4004   440                    Cuts: 40     7012         
      0     0   165626.4004   437                    Cuts: 36     7022         
      0     0   165626.4004   437                    Cuts: 44     7031         
Repair heuristic found nothing.
      0     2   153674.5025   450                    Cuts: 38     7031         
Elapsed time = 15.28 sec. (7452.32 ticks, tree = 0.02 MB, solutions = 0)
    114    43    infeasible                       151014.0995     8176         
    306   112   103463.9340   364                 148159.9465    12483         
    423   296    68047.8112   346                 148159.9465    17293         
    584   310    38580.8634   362                 148159.9465    18027         
    838   438     9909.2076   344                 148159.9465    20598         
   1114   560   -14538.1897   343                 148159.9465    23575         
   1398   687       32.9415   254                 148159.9465    24729         
   1691   804   -15462.4283   234                 147235.4481    27492         
   1960  1167    -7107.2902   260                 147235.4481    29813         
*  3393+ 2333                       -15462.4283   147235.4481              --- 
Elapsed time = 27.78 sec. (10416.08 ticks, tree = 22.46 MB, solutions = 1)
*  4055  2011      integral     0     -166.2875   147235.4481    31666     --- 
   4559   813        cutoff           -166.2875     2661.5820    44799     --- 
   5259   218        cutoff           -166.2875     2661.5820    48903     --- 
   5450   413        0.0000     9     -166.2875     2661.5820    49358     --- 
   5537   455        0.0000     7     -166.2875     2661.5820    50381     --- 
   5585   480        0.0000     4     -166.2875     2661.5820    51886     --- 
   5679   506      -28.4163     9     -166.2875     2661.5820    52526     --- 
   5781   504    infeasible           -166.2875     2661.5820    52498     --- 
   5917   551        cutoff           -166.2875     2661.5820    52672     --- 
   5960   552        cutoff           -166.2875     2661.5820    52674     --- 
Elapsed time = 54.56 sec. (24056.58 ticks, tree = 4.16 MB, solutions = 7)
   6026   577        cutoff           -166.2875     2661.5820    52745     --- 
   6064   675        0.0000     6     -166.2875     2661.5820    53184     --- 
   6178   710        0.0000     6     -166.2875     2661.5820    53245     --- 
   6220   714        0.0000     6     -166.2875     2661.5820    53258     --- 
   6256   751        0.0000     6     -166.2875     2661.5820    53340     --- 
   6309   756        0.0000     6     -166.2875     2661.5820    53367     --- 
   6345   756        cutoff           -166.2875     2661.5820    53368     --- 
   6379   803        0.0000     4     -166.2875     2661.5820    53503     --- 
   6414   803        0.0000     4     -166.2875     2661.5820    53503     --- 
   6456   866        cutoff           -166.2875     2661.5820    54960     --- 
Elapsed time = 60.92 sec. (33693.37 ticks, tree = 8.33 MB, solutions = 7)
   6512   866        cutoff           -166.2875     2661.5820    54961     --- 
   6547   808        cutoff           -166.2875     2661.5820    53521     --- 
   6583   809        cutoff           -166.2875     2661.5820    53523     --- 
   6619   897        0.0000     4     -166.2875     2661.5820    55192     --- 
   6655   898        cutoff           -166.2875     2661.5820    55182     --- 
   6701   908        cutoff           -166.2875     2661.5820    56160     --- 
   6748   925        0.0000     4     -166.2875     2661.5820    57420     --- 
   6783   917        cutoff           -166.2875     2661.5820    57100     --- 
   6821   940        cutoff           -166.2875     2661.5820    57301     --- 
   6880   913        0.0000     6     -166.2875     2661.5820    56170     --- 
Elapsed time = 67.95 sec. (43668.68 ticks, tree = 8.84 MB, solutions = 7)
   6939   954      -20.4642     4     -166.2875     2661.5820    57651     --- 
   6984   953        cutoff           -166.2875     2661.5820    57668     --- 
   7028   963        cutoff           -166.2875     2661.5820    58128     --- 
   7088   946        0.0000     2     -166.2875     2661.5820    57580     --- 
   7128  1015        cutoff           -166.2875     2661.5820    60933     --- 
   7166   978        cutoff           -166.2875     2661.5820    59281     --- 
   7202   979        0.0000     2     -166.2875     2661.5820    59283     --- 
   7239  1020        0.0000     2     -166.2875     2661.5820    61218     --- 
   7290  1028        0.0000     4     -166.2875     2661.5820    61400     --- 
   7327  1019        cutoff           -166.2875     2661.5820    61123     --- 
Elapsed time = 75.92 sec. (53542.98 ticks, tree = 10.27 MB, solutions = 7)
   7359  1028        0.0000     4     -166.2875     2661.5820    61402     --- 
   7425  1030        0.0000     4     -166.2875     2661.5820    61438     --- 
   7455  1022        0.0000     4     -166.2875     2661.5820    61236     --- 
   7492  1034        0.0000     6     -166.2875     2661.5820    61376     --- 
   7529  1033        0.0000     2     -166.2875     2661.5820    61403     --- 
   7577  1096        cutoff           -166.2875     2661.5820    63491     --- 
   7612  1043        cutoff           -166.2875     2661.5820    62673     --- 
   7647  1029        cutoff           -166.2875     2661.5820    61443     --- 
   7678  1058        cutoff           -166.2875     2661.5820    62922     --- 
   7710  1092        cutoff           -166.2875     2661.5820    63184     --- 
Elapsed time = 83.72 sec. (63323.24 ticks, tree = 11.18 MB, solutions = 7)
   7750  1058        0.0000     3     -166.2875     2661.5820    62745     --- 
   7784  1059        0.0000     3     -166.2875     2661.5820    62759     --- 
   7820  1121        cutoff           -166.2875     2661.5820    64512     --- 
   7851  1103        0.0000     4     -166.2875     2661.5820    63622     --- 
   7885  1091        cutoff           -166.2875     2661.5820    63186     --- 
   7916  1121        cutoff           -166.2875     2661.5820    64596     --- 
   7943  1122        cutoff           -166.2875     2661.5820    64605     --- 
   7967  1138        0.0000     4     -166.2875     2661.5820    64817     --- 
   7982  1140        cutoff           -166.2875     2661.5820    64850     --- 
   8000  1140        cutoff           -166.2875     2661.5820    64852     --- 
Elapsed time = 89.33 sec. (73725.54 ticks, tree = 12.11 MB, solutions = 7)

GUB cover cuts applied:  1
Clique cuts applied:  3
Cover cuts applied:  13
Implied bound cuts applied:  6
Flow cuts applied:  217
Mixed integer rounding cuts applied:  34
Gomory fractional cuts applied:  55

Root node processing (before b&c):
  Real time             =   14.59 sec. (7406.38 ticks)
Parallel b&c, 12 threads:
  Real time             =   74.80 sec. (67948.64 ticks)
  Sync time (average)   =    1.01 sec.
  Wait time (average)   =    0.03 sec.
                          ------------
Total (root+branch&cut) =   89.39 sec. (75355.02 ticks)

Solution pool: 7 solutions saved.

MIP - Deterministic time limit exceeded, integer feasible:  Objective = -1.6628747281e+02
Current MIP best bound =  2.6615819912e+03 (gap = 2827.87, 1.7e+03%)
Solution time =   89.39 sec.  Iterations = 65039  Nodes = 8013 (1155)
Deterministic time = 75355.17 ticks  (842.98 ticks/sec)

CPLEX> Incumbent solution written to file 'C:\Users\Luke\Desktop\test919\logs\tmpf4avfka1.cplex.sol'.
CPLEX> Exporting results... 
